(set-logic HORN)
(declare-datatypes ((Nat_0 0)) (((Z_0 ) (S_0 (projS_0 Nat_0)))))
(declare-fun diseqNat_0 (Nat_0 Nat_0) Bool)
(declare-datatypes ((list_0 0)) (((nil_0 ) (cons_0 (head_0 Nat_0) (tail_0 list_0)))))
(declare-fun last_0 (Nat_0 list_0) Bool)
(assert (forall ((x_14 Nat_0))
	(diseqNat_0 Z_0 (S_0 x_14))))
(assert (forall ((x_15 Nat_0))
	(diseqNat_0 (S_0 x_15) Z_0)))
(assert (forall ((x_16 Nat_0) (x_17 Nat_0))
	(=> (diseqNat_0 x_16 x_17) (diseqNat_0 (S_0 x_16) (S_0 x_17)))))
(assert (forall ((x_4 Nat_0) (x_1 Nat_0) (x_2 list_0) (y_0 Nat_0))
	(=> (last_0 x_4 (cons_0 x_1 x_2)) (last_0 x_4 (cons_0 y_0 (cons_0 x_1 x_2))))))
(assert (forall ((x_6 Nat_0))
	(last_0 x_6 (cons_0 x_6 nil_0))))
(assert (last_0 Z_0 nil_0))
(assert (forall ((x_8 Nat_0) (x_3 Nat_0))
	(=> (and (diseqNat_0 x_8 x_3) (last_0 x_8 (cons_0 x_3 nil_0))) false)))
(check-sat)
(get-model)
